files/upTests/_tuples_of_matrix/withFuncMutiComplex/0001.eprime.solution
language ESSENCE' 1.0
$ minion Nodes: 3
$ minion TotalTime: 0.000823
$ Savile Row TotalTime: 0.249
letting pain_tuple1_tuple3_tuple1 be [5, 4]
letting pain_tuple1_tuple4_tuple1 be [7, 8]
letting pain_tuple1_tuple4_tuple3 be [11, 12]
letting pain_tuple1_tuple4_tuple2 be [3, 2]
letting pain_tuple1_tuple1 be [2, 1]
letting pain_tuple1_tuple2_Matrix1D be [[1, -1], 
[-1, -1]]
